# SETS POPULATION
set W := WALKING JOGGING SWIMMING MACHINE INDOOR PUSHBACK;
# PARAMETERS POPULATION
param minimum_amount := 2000;
param tolerance :=
WALKING 5
JOGGING 2
SWIMMING 3
MACHINE 3.5
INDOOR 3
PUSHBACK 0.5;
param calories_hour :=
WALKING 100
JOGGING 200 
SWIMMING 300
MACHINE 150
INDOOR 300
PUSHBACK 500;
